Reading model...
...model read.
creating competitive generators file...
...competitive generators recorded.
Loading data...
.. real-time data read.
Compiling instance...
...instance created.
Creating Offer Mitigation (model will solve as dispatch if TRUE)...
NOTE: storage offers will not be mitigated
...storage offer mitigation file created
Converting model to MPEC...
...converted
NOTE: initial MIP solve with only storage competitive to get feasible solution
Solving...

Welcome to IBM(R) ILOG(R) CPLEX(R) Interactive Optimizer 12.9.0.0
  with Simplex, Mixed Integer & Barrier Optimizers
5725-A06 5725-A29 5724-Y48 5724-Y49 5724-Y54 5724-Y55 5655-Y21
Copyright IBM Corp. 1988, 2019.  All Rights Reserved.

Type 'help' for a list of available commands.
Type 'help' followed by a command name for more
information on commands.

CPLEX> Logfile 'cplex.log' closed.
Logfile 'C:\Users\llavin\Desktop\test826\logs\tmp0xz_8dg9.cplex.log' open.
CPLEX> New value for parallel optimization mode: -1
CPLEX> New value for emphasis for MIP optimization: 1
CPLEX> New value for mixed integer optimality gap tolerance: 0.01
CPLEX> New value for integrality tolerance: 1e-12
CPLEX> New value for deterministic time limit in ticks: 65000
CPLEX> Problem 'C:\Users\llavin\Desktop\test826\logs\tmpz3x71mw1.pyomo.lp' read.
Read time = 0.45 sec. (28.94 ticks)
CPLEX> Problem name         : C:\Users\llavin\Desktop\test826\logs\tmpz3x71mw1.pyomo.lp
Objective sense      : Maximize
Variables            :  107803  [Nneg: 1,  Box: 44062,  Free: 8928,
                                 Binary: 54812]
Objective nonzeros   :   18912
Linear constraints   :  246963  [Less: 82886,  Greater: 118460,  Equal: 45617]
  Nonzeros           :  622373
  RHS nonzeros       :  136555

Variables            : Min LB: -5000.000        Max UB: 1000000.       
Objective nonzeros   : Min   : 0.1166667        Max   : 180.0000       
Linear constraints   :
  Nonzeros           : Min   : 0.001000000      Max   : 1000000.       
  RHS nonzeros       : Min   : 0.001000000      Max   : 1000000.       
CPLEX> CPXPARAM_Parallel                                -1
CPXPARAM_Emphasis_MIP                            1
CPXPARAM_DetTimeLimit                            65000
CPXPARAM_MIP_Tolerances_MIPGap                   0.01
CPXPARAM_MIP_Tolerances_Integrality              9.9999999999999998e-13
Tried aggregator 3 times.
MIP Presolve eliminated 172940 rows and 34038 columns.
MIP Presolve added 7770 rows and 0 columns.
MIP Presolve modified 52838 coefficients.
Aggregator did 26095 substitutions.
Reduced MIP has 55698 rows, 47286 columns, and 168682 nonzeros.
Reduced MIP has 18737 binaries, 0 generals, 0 SOSs, and 0 indicators.
Presolve time = 0.58 sec. (386.15 ticks)
Probing fixed 840 vars, tightened 19197 bounds.
Probing time = 0.41 sec. (19.75 ticks)
Tried aggregator 2 times.
MIP Presolve eliminated 1887 rows and 1701 columns.
MIP Presolve modified 7106 coefficients.
Aggregator did 96 substitutions.
Reduced MIP has 53715 rows, 45489 columns, and 162824 nonzeros.
Reduced MIP has 17896 binaries, 0 generals, 0 SOSs, and 0 indicators.
Presolve time = 0.27 sec. (279.98 ticks)
Probing fixed 2 vars, tightened 520 bounds.
Probing time = 0.58 sec. (21.94 ticks)
Clique table members: 87162.
MIP emphasis: integer feasibility.
MIP search method: dynamic search.
Parallel mode: opportunistic, using up to 32 threads.
Root relaxation solution time = 1.11 sec. (2274.97 ticks)

        Nodes                                         Cuts/
   Node  Left     Objective  IInf  Best Integer    Best Bound    ItCnt     Gap

      0     0        0.0125   217                      0.0125    10593         
*     0+    0                            0.0125        0.0125             0.00%
      0     0        cutoff              0.0125        0.0125    10593    0.00%
Elapsed time = 4.83 sec. (4996.25 ticks, tree = 0.01 MB, solutions = 1)

Root node processing (before b&c):
  Real time             =    4.88 sec. (5000.04 ticks)
Parallel b&c, 32 threads:
  Real time             =    0.00 sec. (0.00 ticks)
  Sync time (average)   =    0.00 sec.
  Wait time (average)   =    0.00 sec.
                          ------------
Total (root+branch&cut) =    4.88 sec. (5000.04 ticks)

Solution pool: 1 solution saved.

MIP - Integer optimal solution:  Objective =  1.2455902644e-02
Solution time =    4.95 sec.  Iterations = 10593  Nodes = 0
Deterministic time = 5000.35 ticks  (1009.56 ticks/sec)

CPLEX> Incumbent solution written to file 'C:\Users\llavin\Desktop\test826\logs\tmp1v4db0fl.cplex.sol'.
CPLEX> NOTE: no warmstart specified for MIP iteration, default behavior is true
NOTE: resolving with all competitive generators using storage-only solution to warmstart
Solving...

Welcome to IBM(R) ILOG(R) CPLEX(R) Interactive Optimizer 12.9.0.0
  with Simplex, Mixed Integer & Barrier Optimizers
5725-A06 5725-A29 5724-Y48 5724-Y49 5724-Y54 5724-Y55 5655-Y21
Copyright IBM Corp. 1988, 2019.  All Rights Reserved.

Type 'help' for a list of available commands.
Type 'help' followed by a command name for more
information on commands.

CPLEX> Logfile 'cplex.log' closed.
Logfile 'C:\Users\llavin\Desktop\test826\logs\tmpitt3uuiq.cplex.log' open.
CPLEX> New value for parallel optimization mode: -1
CPLEX> New value for emphasis for MIP optimization: 1
CPLEX> New value for mixed integer optimality gap tolerance: 0.01
CPLEX> New value for integrality tolerance: 1e-12
CPLEX> New value for deterministic time limit in ticks: 65000
CPLEX> Problem 'C:\Users\llavin\Desktop\test826\logs\tmpznovms31.pyomo.lp' read.
Read time = 0.47 sec. (28.99 ticks)
CPLEX> MIP start file 'C:\Users\llavin\Desktop\test826\logs\tmpcx3h_j51.cplex.mst' read.
CPLEX> Problem name         : C:\Users\llavin\Desktop\test826\logs\tmpznovms31.pyomo.lp
Objective sense      : Maximize
Variables            :  109243  [Nneg: 1,  Box: 45502,  Free: 8928,
                                 Binary: 54812]
Objective nonzeros   :   20304
Linear constraints   :  246963  [Less: 82886,  Greater: 118460,  Equal: 45617]
  Nonzeros           :  622373
  RHS nonzeros       :  136555

Variables            : Min LB: -5000.000        Max UB: 1000000.       
Objective nonzeros   : Min   : 0.1166667        Max   : 180.0000       
Linear constraints   :
  Nonzeros           : Min   : 0.001000000      Max   : 1000000.       
  RHS nonzeros       : Min   : 0.001000000      Max   : 1000000.       
CPLEX> CPXPARAM_Parallel                                -1
CPXPARAM_Emphasis_MIP                            1
CPXPARAM_DetTimeLimit                            65000
CPXPARAM_MIP_Tolerances_MIPGap                   0.01
CPXPARAM_MIP_Tolerances_Integrality              9.9999999999999998e-13
Warning:  No solution found from 1 MIP starts.
Retaining values of one MIP start for possible repair.
Tried aggregator 3 times.
MIP Presolve eliminated 172940 rows and 35478 columns.
MIP Presolve added 7770 rows and 0 columns.
MIP Presolve modified 52838 coefficients.
Aggregator did 26095 substitutions.
Reduced MIP has 55698 rows, 47286 columns, and 168682 nonzeros.
Reduced MIP has 18737 binaries, 0 generals, 0 SOSs, and 0 indicators.
Presolve time = 0.56 sec. (386.94 ticks)
Probing fixed 840 vars, tightened 19197 bounds.
Probing time = 0.44 sec. (19.75 ticks)
Tried aggregator 2 times.
MIP Presolve eliminated 1887 rows and 1701 columns.
MIP Presolve modified 7106 coefficients.
Aggregator did 96 substitutions.
Reduced MIP has 53715 rows, 45489 columns, and 162824 nonzeros.
Reduced MIP has 17896 binaries, 0 generals, 0 SOSs, and 0 indicators.
Presolve time = 0.27 sec. (279.99 ticks)
Probing fixed 2 vars, tightened 520 bounds.
Probing time = 0.59 sec. (21.94 ticks)
Clique table members: 87162.
MIP emphasis: integer feasibility.
MIP search method: dynamic search.
Parallel mode: opportunistic, using up to 32 threads.
Root relaxation solution time = 1.45 sec. (2927.04 ticks)

        Nodes                                         Cuts/
   Node  Left     Objective  IInf  Best Integer    Best Bound    ItCnt     Gap

      0     0    12190.5338   709                  12190.5338    13140         
      0     0    11641.2451   467                   Cuts: 270    13557         
      0     0    11460.0979   407                   Cuts: 116    13715         
      0     0    11460.0979   410                    Cuts: 19    13740         
Repair heuristic found nothing.
      0    39    10524.7726   375                   Covers: 3    14040         
Elapsed time = 9.09 sec. (6092.77 ticks, tree = 0.05 MB, solutions = 0)
    249    53    10030.6984   392                  11055.3970    14140         
    543   244    10144.1940   361                  11055.3970    15415         
    835   508    10352.0670   351                  11055.3970    17287         
   1092  1026     9505.7096   331                  11055.3970    20697         
   1336  1070    10375.5853   321                  11055.3970    21020         
   1491  1378     7518.2283   230                  11055.3970    23330         
   1732  1463     9699.0642   291                  11055.3970    23953         
   1968  1822     8627.7070   299                  11055.3970    26795         
   2214  1688    10409.3582   314                  11055.3970    25506         
   3299  2693    10307.4812   320                  11055.3970    34921         
Elapsed time = 30.14 sec. (9202.20 ticks, tree = 35.89 MB, solutions = 0)
   4419  3524     9725.7582   337                  11055.3970    44362         
   5557  4575    infeasible                        11055.3970    54945         
   6763  5672     4692.8853   224                  11055.3970    65022         
   7839  6364     5066.1935   141                  11055.3970    72389         
   8906  7524     3926.3319   124                  11055.3970    85519         
  10073  8573     3540.1150    86                  11049.3734    98930         
  11283  9101     5850.0025   275                  11049.3734   107203         
  12362 10088     8785.0869   321                  11049.3734   123534         
  13393 11406     7570.3731   374                  11049.3734   145248         
  14480 11504     9335.8556   356                  11049.3734   146427         
Elapsed time = 98.50 sec. (18747.53 ticks, tree = 191.87 MB, solutions = 0)
  15661 12621     5122.3305   295                  11049.3734   162852         
  16948 13564    10290.0206   373                  11049.3734   178100         
  18262 15535     9779.0902   344                  11049.3734   209255         
  19507 15991     4361.6991   402                  11049.3734   217394         
  20680 18068    10293.3185   387                  11049.3734   261127         
  21900 18269    10322.5818   363                  11049.3734   265787         
  23223 20535     8520.3944   370                  11049.3734   303041         
  24367 20812    10036.8499   349                  11049.3734   308025         
  25520 21118    10030.0222   358                  11049.3734   313286         
  26605 21794     9717.1526   347                  11049.3734   327426         
Elapsed time = 161.64 sec. (28292.01 ticks, tree = 373.85 MB, solutions = 0)
  27685 24404    infeasible                        11049.3734   368238         
  28784 23519     9603.1619   340                  11049.3734   355358         
  29927 24174     9640.1284   350                  11049.3734   364566         
  31041 25188    infeasible                        11049.3734   379851         
  32233 26624    10064.2254   364                  11049.3734   403280         
  33591 27950     9846.8933   384                  11049.3734   424312         
  35085 27861    10099.4596   365                  11049.3734   422679         
  36422 29025     1966.0277   328                  11049.3734   437933         
  37614 30171     5558.1865   341                  11049.3734   454402         
  38823 31439    infeasible                        11049.3734   474885         
Elapsed time = 225.61 sec. (37839.50 ticks, tree = 543.42 MB, solutions = 0)
  40080 31886     7955.1357   354                  11049.3734   480528         
  41265 33398    10330.2054   361                  11049.3734   503607         
  42447 35702     9804.6238   356                  11049.3734   546198         
  43623 35832    infeasible                        11049.3734   550570         
  44783 35902    10369.0929   358                  11049.3734   551007         
  45908 37892     6012.8897   373                  11049.3734   589495         
  47185 39020     7024.9652   305                  11049.3734   613299         
  48379 38622     5778.9434   364                  11049.3734   605542         
  49637 39816     3042.8026   314                  11049.3734   634032         
  50828 42157     9710.8484   348                  11049.3734   688669         
Elapsed time = 288.73 sec. (47383.86 ticks, tree = 732.59 MB, solutions = 0)
  51969 41908     9837.5208   297                  11049.3734   681231         
  53037 45164    10204.6266   383                  11049.3734   752491         
  54122 43312     5383.0864   374                  11049.3734   715828         
  55182 45100     9219.0359   349                  11049.3734   751531         
  56293 46604     4620.2185   327                  11049.3734   787314         
  57441 46034    infeasible                        11049.3734   774812         
  58569 49053    10089.8177   384                  11049.3734   845081         
  59709 50249    10162.2016   371                  11049.3734   872100         
  60909 49394    10183.6547   370                  11049.3734   856699         
  62122 49823     5754.8630   365                  11049.3734   865779         
Elapsed time = 353.88 sec. (56933.73 ticks, tree = 866.79 MB, solutions = 0)
  63367 49930    10151.7895   363                  11049.3734   865268         
  64609 50713    infeasible                        11049.3734   884605         
  65763 54523     8174.5578   345                  11049.3734   968661         
  66825 54726     8777.0521   345                  11049.3734   972600         
  67984 54156     9616.0732   350                  11049.3734   959402         
  69073 56423     9682.4309   348                  11049.3734  1009592         
  69993 56264     9424.2823   339                  11049.3734  1006382         
  70638 55993     9766.1855   344                  11049.3734   996921         

Cover cuts applied:  22
Flow cuts applied:  296
Mixed integer rounding cuts applied:  1
Gomory fractional cuts applied:  16

Root node processing (before b&c):
  Real time             =    6.22 sec. (6027.18 ticks)
Parallel b&c, 32 threads:
  Real time             =  375.05 sec. (59036.97 ticks)
  Sync time (average)   =    1.77 sec.
  Wait time (average)   =    0.00 sec.
                          ------------
Total (root+branch&cut) =  381.27 sec. (65064.15 ticks)


MIP - Deterministic time limit exceeded, no integer solution.
Current MIP best bound =  1.1049373383e+04 (gap is infinite)
Solution time =  381.31 sec.  Iterations = 1120608  Nodes = 70838 (61432)
Deterministic time = 65064.46 ticks  (170.63 ticks/sec)

CPLEX> CPLEX Error  1217: No solution exists.
No file written.
CPLEX> gap is infinite, so writing 0
Exporting results... 
